c description: Random 3-CNF over 11 variables and 4 clauses
c generator: CNFgen (0.9.0)
c copyright: (C) 2012-2020 Massimo Lauria <massimo.lauria@uniroma1.it>
c url: https://massimolauria.net/cnfgen
c
p cnf 11 4
5 -6 -8 0
9 10 11 0
3 -5 9 0
-3 -5 9 0